/*********************************************
    * Lab01 - FCD_FCR
    * Author: Coso
    * Creation Date: Mar, 2019
    *********************************************/
instance_name = "small_instance_05_FCD_FCR";

d = 2;
r = 3;

SCj = [105 112];
Fj = [3130, 4634];
Dk = [63 68 61];

Cjk = [[78 36 84]
 [86 37 64]];
Fjk = [[823 570 442]
 [513 904 831]];
